
Welcome to IBM(R) ILOG(R) CPLEX(R) Interactive Optimizer 22.1.1.0
  with Simplex, Mixed Integer & Barrier Optimizers
5725-A06 5725-A29 5724-Y48 5724-Y49 5724-Y54 5724-Y55 5655-Y21
Copyright IBM Corp. 1988, 2022.  All Rights Reserved.

Type 'help' for a list of available commands.
Type 'help' followed by a command name for more
information on commands.

CPLEX> Selected objective sense:  MINIMIZE
Selected objective  name:  00000000
Selected RHS        name:  RHS1
Selected bound      name:  BOUND
Problem 'ee.mps' read.
Read time = 0.03 sec. (3.14 ticks)
CPLEX> New value for time limit in seconds: 7200
CPLEX> New value for parallel optimization mode: -1
CPLEX> New value for default parallel thread count: 40
CPLEX> New value for mixed integer optimality gap tolerance: 1e-13
CPLEX> Version identifier: 22.1.1.0 | 2022-11-28 | 9160aff4d
CPXPARAM_Threads                                 40
CPXPARAM_Parallel                                -1
CPXPARAM_TimeLimit                               7200
CPXPARAM_MIP_Tolerances_MIPGap                   1e-13
Found incumbent of value 0.000000 after 0.00 sec. (0.31 ticks)
Tried aggregator 2 times.
MIP Presolve eliminated 183 rows and 2745 columns.
MIP Presolve modified 5862 coefficients.
Aggregator did 713 substitutions.
Reduced MIP has 3624 rows, 7744 columns, and 28665 nonzeros.
Reduced MIP has 7744 binaries, 0 generals, 0 SOSs, and 0 indicators.
Presolve time = 0.07 sec. (68.81 ticks)
Probing time = 0.03 sec. (5.46 ticks)
Tried aggregator 1 time.
Detecting symmetries...
Reduced MIP has 3624 rows, 7744 columns, and 28665 nonzeros.
Reduced MIP has 7744 binaries, 0 generals, 0 SOSs, and 0 indicators.
Presolve time = 0.02 sec. (21.93 ticks)
Probing time = 0.02 sec. (5.26 ticks)
Clique table members: 18557.
MIP emphasis: balance optimality and feasibility.
MIP search method: dynamic search.
Parallel mode: opportunistic, using up to 40 threads.
Root relaxation solution time = 0.21 sec. (175.50 ticks)

        Nodes                                         Cuts/
   Node  Left     Objective  IInf  Best Integer    Best Bound    ItCnt     Gap

*     0+    0                            0.0000  -1.31000e+13              --- 
*     0+    0                      -4.40000e+12  -1.31000e+13           197.73%
*     0+    0                      -5.50000e+12  -1.31000e+13           138.18%
      0     0  -1.30900e+13    91  -5.50000e+12  -1.30900e+13     3185  138.00%
*     0+    0                      -1.30900e+13  -1.30900e+13             0.00%
      0     0  -1.30900e+13   173  -1.30900e+13      Cuts: 63     4222    0.00%
*     0+    0                      -1.30900e+13  -1.30900e+13             0.00%
      0     0  -1.30900e+13   235  -1.30900e+13      Cuts: 56     4536    0.00%
*     0+    0                      -1.30900e+13  -1.30900e+13             0.00%
      0    19    infeasible        -1.30900e+13  -1.30900e+13    11185    0.00%
Elapsed time = 2.64 sec. (1515.49 ticks, tree = 0.02 MB, solutions = 16)
*    27    59      integral     0  -1.30900e+13  -1.30900e+13    40012    0.00%
    299    74  -1.30900e+13     8  -1.30900e+13  -1.30900e+13    43373    0.00%
   1351    69  -1.30900e+13    46  -1.30900e+13  -1.30900e+13    40512    0.00%
   2904    57  -1.30900e+13   332  -1.30900e+13  -1.30900e+13    55807    0.00%
   4466    69  -1.30900e+13    68  -1.30900e+13  -1.30900e+13    79903    0.00%
   6094   127        cutoff        -1.30900e+13  -1.30900e+13   130516    0.00%
   7367   125        cutoff        -1.30900e+13  -1.30900e+13   141144    0.00%
   8400   106        cutoff        -1.30900e+13  -1.30900e+13   152049    0.00%
   9143    65        cutoff        -1.30900e+13  -1.30900e+13   166676    0.00%
   9535    40        cutoff        -1.30900e+13  -1.30900e+13   218144    0.00%

GUB cover cuts applied:  1
Clique cuts applied:  11
Cover cuts applied:  479
Mixed integer rounding cuts applied:  5
Zero-half cuts applied:  3
Lift and project cuts applied:  10
Gomory fractional cuts applied:  20

Root node processing (before b&c):
  Real time             =    1.59 sec. (1511.40 ticks)
Parallel b&c, 40 threads:
  Real time             =    4.62 sec. (2316.91 ticks)
  Sync time (average)   =    1.67 sec.
  Wait time (average)   =    0.00 sec.
                          ------------
Total (root+branch&cut) =    6.21 sec. (3828.31 ticks)

Solution pool: 58 solutions saved.

MIP - Integer optimal solution:  Objective = -1.3089998688e+13
Solution time =    6.35 sec.  Iterations = 250303  Nodes = 9661
Deterministic time = 3828.35 ticks  (602.52 ticks/sec)

CPLEX> Solution 'p59' written to file 'ee.sol'.
CPLEX> 